100 82656

 534 273
138 875
592 767
315 363
53 735
949 105
642 790
877 533
677 293
357 656
513 642
676 210
961 31
254 434
875 570
925 877
671 929
932 529
398 754
954 440
703 747
43 205
907 372
485 635
461 19
567 723
150 836
470 400
832 448
16 852
273 776
3 289
416 324
729 679
799 564
946 163
609 310
255 900
925 689
776 986
575 768
696 942
925 217
713 772
369 21
714 671
41 470
387 347
407 863
167 855
24 23
134 610
655 368
803 416
989 833
347 310
600 944
938 180
168 663
718 673
755 253
89 325
862 835
814 762
34 330
92 534
50 62
335 209
510 486
533 86
268 844
912 719
369 944
46 694
301 941
532 555
409 601
274 977
132 643
820 31
997 724
330 906
382 796
619 584
719 672
393 991
905 91
561 668
451 284
647 641
953 608
795 154
41 207
333 622
471 129
315 266
701 836
827 328
732 489
990 942
